p cnf 12 50 
5 7 -8 0
-5 6 4 0
-1 -7 -4 0
5 -6 1 0
-6 8 -10 0
-9 1 5 0
11 1 -4 0
10 -6 -8 0
10 -4 8 0
12 -8 4 0
5 12 7 0
-1 -3 7 0
2 4 11 0
8 -2 11 0
2 3 -10 0
6 -5 9 0
9 -7 10 0
-8 10 -9 0
10 4 11 0
-8 3 -11 0
12 -3 -4 0
-4 9 12 0
-2 -3 -10 0
-7 -11 10 0
11 2 12 0
2 -5 -11 0
9 -8 5 0
-2 1 -8 0
-6 5 9 0
-2 -10 7 0
3 8 -1 0
9 -2 7 0
-12 1 10 0
4 3 5 0
5 11 -10 0
-12 11 6 0
-12 8 -1 0
6 1 -4 0
12 -1 -11 0
5 -1 -10 0
-6 5 -1 0
-7 -6 3 0
12 1 10 0
-4 9 3 0
-12 -4 5 0
3 5 10 0
-2 -1 11 0
6 -1 -9 0
-4 -11 12 0
-3 -6 -9 0
